100
128
25
5
19
19
39
62
59
55
25
33
23
8
51
46
13
9
36
52
46
40
34
23
22
43
39
28
32
17
2
19
10
10
2
13
10
9
18
13
17
1
46
5
16
14
27
7
1
3
3
14
17
21
2
15
7
14
21
29
41
15
1
2
25
21
11
18
1
1
2
12
34
16
21
1
21
14
41
2
14
14
16
51
28
45
1
40
64
54
1
16
35
57
43
24
18
20
16
64
28
64